language ESSENCE' 1.0
letting lastdx=108
letting cage be [
[12,4,1,0,0, 0,0, 0,0, 0,0],
[16,12,6,0,0, 0,0, 0,0, 0,0],
[53,11,15,12,15,13,15,13,14,0,0],
[28,8,4,8,3,9,3,0,0, 0,0],
[37,4,5,3,5,3,6,4,6,4,7],
[42,6,13,7,13,8,13,8,14,7,14],
[10,10,4,0,0, 0,0, 0,0, 0,0],
[15,6,10,5,10,0,0, 0,0, 0,0],
[3,6,12,0,0, 0,0, 0,0, 0,0],
[24,7,16,8,16,0,0, 0,0, 0,0],
[7,13,8,0,0, 0,0, 0,0, 0,0],
[6,13,13,0,0, 0,0, 0,0, 0,0],
[17,11,14,12,14,0,0, 0,0, 0,0],
[13,11,13,12,13,12,12,0,0, 0,0],
[1,11,9,0,0, 0,0, 0,0, 0,0],
[34,11,8,11,7,10,7,0,0, 0,0],
[26,3,9,4,9,0,0, 0,0, 0,0],
[23,16,12,16,11,0,0, 0,0, 0,0],
[23,12,1,13,1,14,1,15,1,15,2],
[1,2,7,0,0, 0,0, 0,0, 0,0],
[46,4,8,3,8,3,7,2,8,0,0],
[23,13,16,12,16,11,16,0,0, 0,0],
[6,8,11,0,0, 0,0, 0,0, 0,0],
[26,5,12,4,12,0,0, 0,0, 0,0],
[4,16,9,0,0, 0,0, 0,0, 0,0],
[5,9,11,0,0, 0,0, 0,0, 0,0],
[7,1,10,1,11,0,0, 0,0, 0,0],
[29,3,1,2,1,0,0, 0,0, 0,0],
[25,14,13,14,12,14,11,0,0, 0,0],
[12,2,11,0,0, 0,0, 0,0, 0,0],
[8,10,12,0,0, 0,0, 0,0, 0,0],
[15,10,3,0,0, 0,0, 0,0, 0,0],
[39,1,3,2,3,2,4,1,4,1,5],
[7,9,1,9,2,0,0, 0,0, 0,0],
[8,4,4,0,0, 0,0, 0,0, 0,0],
[8,5,14,0,0, 0,0, 0,0, 0,0],
[13,9,9,0,0, 0,0, 0,0, 0,0],
[10,16,16,15,16,0,0, 0,0, 0,0],
[3,12,4,0,0, 0,0, 0,0, 0,0],
[10,6,11,7,11,0,0, 0,0, 0,0],
[2,7,1,0,0, 0,0, 0,0, 0,0],
[16,3,14,2,14,0,0, 0,0, 0,0],
[13,13,2,0,0, 0,0, 0,0, 0,0],
[7,3,4,0,0, 0,0, 0,0, 0,0],
[13,15,12,0,0, 0,0, 0,0, 0,0],
[41,6,8,6,9,5,9,5,8,5,7],
[3,2,2,0,0, 0,0, 0,0, 0,0],
[35,13,7,14,7,15,7,15,6,0,0],
[15,9,8,0,0, 0,0, 0,0, 0,0],
[26,15,15,14,15,14,16,0,0, 0,0],
[20,9,5,9,4,0,0, 0,0, 0,0],
[13,11,3,0,0, 0,0, 0,0, 0,0],
[21,12,9,12,8,12,7,0,0, 0,0],
[54,15,13,16,13,16,14,16,15,0,0],
[3,10,14,0,0, 0,0, 0,0, 0,0],
[15,7,8,8,8,8,7,0,0, 0,0],
[50,7,12,8,12,9,12,9,13,10,13],
[15,1,13,0,0, 0,0, 0,0, 0,0],
[49,13,5,13,4,14,4,15,4,0,0],
[18,10,2,11,2,0,0, 0,0, 0,0],
[6,12,10,0,0, 0,0, 0,0, 0,0],
[12,11,1,10,1,0,0, 0,0, 0,0],
[49,7,6,6,6,6,7,7,7,0,0],
[9,15,14,14,14,0,0, 0,0, 0,0],
[42,1,15,1,14,1,16,0,0, 0,0],
[36,10,16,9,16,9,15,9,14,10,15],
[17,2,10,3,10,0,0, 0,0, 0,0],
[47,5,16,6,16,6,15,6,14,0,0],
[2,2,15,0,0, 0,0, 0,0, 0,0],
[15,4,2,0,0, 0,0, 0,0, 0,0],
[11,14,10,13,10,13,9,14,9,0,0],
[34,15,10,15,11,16,10,0,0, 0,0],
[50,11,10,10,10,10,11,11,11,11,12],
[12,6,2,0,0, 0,0, 0,0, 0,0],
[6,7,3,0,0, 0,0, 0,0, 0,0],
[26,5,3,5,4,6,3,0,0, 0,0],
[16,4,13,5,13,0,0, 0,0, 0,0],
[19,2,6,2,5,0,0, 0,0, 0,0],
[20,1,1,1,2,0,0, 0,0, 0,0],
[8,1,6,0,0, 0,0, 0,0, 0,0],
[12,1,7,1,8,0,0, 0,0, 0,0],
[23,1,9,2,9,0,0, 0,0, 0,0],
[32,1,12,2,12,2,13,3,13,3,12],
[15,2,16,3,16,0,0, 0,0, 0,0],
[16,3,2,3,3,4,3,0,0, 0,0],
[13,3,11,0,0, 0,0, 0,0, 0,0],
[4,3,15,0,0, 0,0, 0,0, 0,0],
[16,4,10,4,11,5,11,0,0, 0,0],
[1,4,14,0,0, 0,0, 0,0, 0,0],
[14,4,15,4,16,5,15,0,0, 0,0],
[34,5,1,5,2,6,1,0,0, 0,0],
[23,7,2,8,2,8,1,0,0, 0,0],
[14,7,5,0,0, 0,0, 0,0, 0,0],
[51,7,9,8,9,8,10,7,10,9,10],
[6,7,15,8,15,0,0, 0,0, 0,0],
[12,8,5,0,0, 0,0, 0,0, 0,0],
[7,8,6,0,0, 0,0, 0,0, 0,0],
[17,9,6,9,7,0,0, 0,0, 0,0],
[17,10,6,11,6,0,0, 0,0, 0,0],
[13,10,8,10,9,0,0, 0,0, 0,0],
[14,12,2,0,0, 0,0, 0,0, 0,0],
[11,12,3,0,0, 0,0, 0,0, 0,0],
[10,12,11,0,0, 0,0, 0,0, 0,0],
[12,13,3,0,0, 0,0, 0,0, 0,0],
[33,13,6,14,6,14,5,15,5,16,5],
[41,14,2,14,3,15,3,16,3,16,4],
[31,14,8,15,8,15,9,0,0, 0,0],
[17,16,1,16,2,0,0, 0,0, 0,0],
[25,16,6,16,7,16,8,0,0, 0,0]
]
